\ Model _copy
\ LP format - for model browsing. Use MPS format to capture full model detail.
Maximize
 
Subject To
 R0: z[0] + z[1] + z[2] + z[3] + z[4] = 1
 R9: - z[1] + z[2] >= 0
 R11: z[0] >= 0.01
 R12: - 8 z[0] - z[1] - 5 z[2] - z[3] + z[4] >= 0.01
 R13: - 8 z[0] - z[1] - 5 z[2] + z[3] >= 0.01
 R15: - 8 z[0] + z[1] >= 0.01
Bounds
 z[0] free
 z[1] free
 z[2] free
 z[3] free
 z[4] free
End
